NAME: instance_12
TYPE: TSP
COMMENT: 12-city problem
DIMENSION: 12
EDGE_WEIGHT_TYPE: EUC_2D
NODE_COORD_SECTION
0 33 18
1 95 39
2 85 56
3 9 35
4 19 45
5 80 24
6 55 21
7 70 41
8 4 80
9 1 7
10 19 79
11 62 48
EOF
